55
91
84
56
88
23
7
69
20
86
25
92
64
47
80
75
29
73
94
14
36
49
9
33
58
53
62
96
61
17
98
57
74
39
68
21
87
19
51
2
26
27
59
67
48
83
81
45
28
32
90
78
60
0
24
50
54
13
97
89
1
34
52
35
42
79
6
72
85
8
40
95
11
65
77
10
15
44
37
38
31
4
5
12
76
46
99
3
18
82
43
70
30
93
41
71
22
63
66
16
